(set-info :smt-lib-version 2.7)
(set-logic ALL)
(set-info :source |
Generated on: 2026-06-22
Generator: pog2smtlib-2.7 github.com/CLEARSY/pog2smtlib-2.7 (-l HO_ALL -rpX)
Application: Discharging a proof obligation generated by aTelierB from an anonymized B machine
Target solver: CVC5
Time limit: 1200.0
|)
(set-info :license "www.gnu.org/licenses/gpl-3.0.en.html")
(set-info :category "industrial")
(set-info :status unknown)

(declare-sort P 1)
(define-sort |BOOL| () Bool)
(declare-sort |s68| 0)
(declare-datatype C (par (T1 T2) ((maplet (fst T1) (snd T2)))))
(define-sort |POW BOOL| () (P |BOOL|))
(define-sort |POW s68| () (P |s68|))
(define-sort |(s68 x BOOL)| () (C |s68| |BOOL|))
(declare-fun |set.in BOOL| (|BOOL| |POW BOOL|) Bool)
(declare-fun |set.in s68| (|s68| |POW s68|) Bool)
(define-sort |POW (s68 x BOOL)| () (P |(s68 x BOOL)|))
(declare-fun |set.in (s68 x BOOL)| (|(s68 x BOOL)| |POW (s68 x BOOL)|) Bool)
(define-sort |POW POW (s68 x BOOL)| () (P |POW (s68 x BOOL)|))
(declare-fun |set.subseteq (s68 x BOOL)| (|POW (s68 x BOOL)| |POW (s68 x BOOL)|) Bool)
(assert (!
    (forall ((s |POW (s68 x BOOL)|) (t |POW (s68 x BOOL)|))
      (=
        (|set.subseteq (s68 x BOOL)| s t)
        (forall ((e |(s68 x BOOL)|)) (=> (|set.in (s68 x BOOL)| e s) (|set.in (s68 x BOOL)| e t)))
      )
    )
    :named |ax.set.subseteq (s68 x BOOL)|))
(declare-fun |set.in POW (s68 x BOOL)| (|POW (s68 x BOOL)| |POW POW (s68 x BOOL)|) Bool)
(declare-sort |s66| 0)
(declare-fun |sub-sets (s68 x BOOL)| (|POW (s68 x BOOL)|) |POW POW (s68 x BOOL)|)
(assert (!
  (forall ((s |POW (s68 x BOOL)|) (t |POW (s68 x BOOL)|))
    (=
      (|set.in POW (s68 x BOOL)| s (|sub-sets (s68 x BOOL)| t))
      (|set.subseteq (s68 x BOOL)| s t)))
  :named |ax.sub-sets (s68 x BOOL)|))
(declare-fun |set.product s68 BOOL| (|POW s68| |POW BOOL|) |POW (s68 x BOOL)|)
(assert (!
  (forall ((s1 |POW s68|) (s2 |POW BOOL|))
    (forall ((p |(s68 x BOOL)|))
      (= (|set.in (s68 x BOOL)| p (|set.product s68 BOOL| s1 s2))
        (and (|set.in s68| (fst p) s1) (|set.in BOOL| (snd p) s2)))))
  :named |ax.set.in.product.1 (s68 x BOOL)|))
(assert (!
  (forall ((s1 |POW s68|) (s2 |POW BOOL|))
    (forall ((x1 |s68|) (x2 |BOOL|))
      (= (|set.in (s68 x BOOL)| (maplet x1 x2) (|set.product s68 BOOL| s1 s2))
        (and (|set.in s68| x1 s1) (|set.in BOOL| x2 s2)))))
  :named |ax.set.in.product.2 (s68 x BOOL)|))
(define-sort |POW s66| () (P |s66|))
(define-sort |(s68 x s66)| () (C |s68| |s66|))
(declare-fun |relations s68 BOOL| (|POW s68| |POW BOOL|) |POW POW (s68 x BOOL)|)
(assert (!
  (forall ((X |POW s68|) (Y |POW BOOL|))
    (= (|relations s68 BOOL| X Y)
       (|sub-sets (s68 x BOOL)| (|set.product s68 BOOL| X Y))))
    :named |def.relations (s68 x BOOL)|))
(declare-fun |functions s68 BOOL| (|POW s68| |POW BOOL|) |POW POW (s68 x BOOL)|)
(assert (!
  (forall ((X |POW s68|) (Y |POW BOOL|))
    (forall ((f |POW (s68 x BOOL)|))
      (= (|set.in POW (s68 x BOOL)| f (|functions s68 BOOL| X Y))
         (forall ((p |(s68 x BOOL)|) (q |(s68 x BOOL)|))
           (=> (and (|set.in (s68 x BOOL)| p f) (|set.in (s68 x BOOL)| q f) (= (fst p) (fst q)))
               (= (snd p) (snd q)))))))
:named |ax:set.in.functions (s68 x BOOL)|))
(declare-fun |rel.domain s68 BOOL| (|POW (s68 x BOOL)|) |POW s68|)
(assert (!
  (forall ((r |POW (s68 x BOOL)|) (e |s68|))
    (= (|set.in s68| e (|rel.domain s68 BOOL| r))
       (exists ((y |BOOL|)) (|set.in (s68 x BOOL)| (maplet e y) r))))
  :named |ax:set.in.domain (s68 x BOOL)|))
(declare-fun |set.in s66| (|s66| |POW s66|) Bool)
(define-sort |POW (s68 x s66)| () (P |(s68 x s66)|))
(declare-sort |s64| 0)
(declare-fun |functions.partial s68 BOOL| (|POW s68| |POW BOOL|) |POW POW (s68 x BOOL)|)
(assert (!
  (forall ((e1 |POW s68|) (e2 |POW BOOL|))
    (forall ((f |POW (s68 x BOOL)|))
      (= (|set.in POW (s68 x BOOL)| f (|functions.partial s68 BOOL| e1 e2))
         (and (|set.in POW (s68 x BOOL)| f (|relations s68 BOOL| e1 e2))
              (|set.in POW (s68 x BOOL)| f (|functions s68 BOOL| e1 e2))))))
  :named |ax:def.pfun (s68 x BOOL)|)
)
(declare-fun |relations.total s68 BOOL| (|POW s68| |POW BOOL|) |POW POW (s68 x BOOL)|)
(assert (!
  (forall ((X |POW s68|) (Y |POW BOOL|))
    (forall ((f |POW (s68 x BOOL)|))
      (= (|set.in POW (s68 x BOOL)| f (|relations.total s68 BOOL| X Y))
         (= (|rel.domain s68 BOOL| f) X))))
 :named |ax:set.in.relations.total (s68 x BOOL)|))
(declare-fun |set.in (s68 x s66)| (|(s68 x s66)| |POW (s68 x s66)|) Bool)
(declare-const s594 |s64|)
(declare-const |set.empty (s68 x BOOL)| |POW (s68 x BOOL)|)
(assert (!
  (forall ((e |(s68 x BOOL)|)) (not (|set.in (s68 x BOOL)| e |set.empty (s68 x BOOL)|)))
  :named |ax.set.in.empty (s68 x BOOL)|))
(declare-fun |functions.total s68 BOOL| (|POW s68| |POW BOOL|) |POW POW (s68 x BOOL)|)
(assert (!
  (forall ((e1 |POW s68|) (e2 |POW BOOL|))
    (forall ((f |POW (s68 x BOOL)|))
      (= (|set.in POW (s68 x BOOL)| f (|functions.total s68 BOOL| e1 e2))
         (and (|set.in POW (s68 x BOOL)| f (|functions.partial s68 BOOL| e1 e2))
              (|set.in POW (s68 x BOOL)| f (|relations.total s68 BOOL| e1 e2))))))
  :named |ax:def.tfun (s68 x BOOL)|))
(declare-const BOOL |POW BOOL|)
(assert (!
  (forall ((e |BOOL|)) (|set.in BOOL| e BOOL))
  :named |ax.set.in.BOOL|))
(declare-const |set.empty (s68 x s66)| |POW (s68 x s66)|)
(assert (!
  (forall ((e |(s68 x s66)|)) (not (|set.in (s68 x s66)| e |set.empty (s68 x s66)|)))
  :named |ax.set.in.empty (s68 x s66)|))
(declare-fun |rel.domain s68 s66| (|POW (s68 x s66)|) |POW s68|)
(assert (!
  (forall ((r |POW (s68 x s66)|) (e |s68|))
    (= (|set.in s68| e (|rel.domain s68 s66| r))
       (exists ((y |s66|)) (|set.in (s68 x s66)| (maplet e y) r))))
  :named |ax:set.in.domain (s68 x s66)|))
(assert (!
  (not
    (|set.in POW (s68 x BOOL)| |set.empty (s68 x BOOL)| (|functions.total s68 BOOL| (|rel.domain s68 s66| |set.empty (s68 x s66)|) BOOL)))
  :named |Goal|))
(check-sat)
(exit)
